120
150
48
43
58
51
46
53
52
57
55
40
48
41
60
41
59
45
53
52
49
46
53
54
45
43
53
44
53
43
53
54
46
44
60
54
52
48
57
60
46
45
53
48
49
44
54
51
57
53
48
57
60
50
45
45
52
41
57
60
41
49
51
46
53
48
60
44
41
41
57
59
49
53
53
56
48
52
48
46
56
46
44
53
45
53
43
60
48
54
52
42
48
54
49
44
57
48
42
52
50
59
46
57
52
60
57
55
48
48
46
45
51
46
53
60
46
52
45
53
44
41
